3 3 4 
3 1 1 3 2 19 3 15 4 18 2 1 2 2 44 4 39 2 3 2 139 3 127 4 126 2 2 2 1 53 2 51 3 3 1 65 2 56 4 59 
3 1 1 2 2 30 4 30 2 1 4 1 161 2 164 3 154 4 144 2 1 1 174 1 3 4 1 68 2 76 3 68 4 67 
3 2 1 4 1 48 2 48 3 45 4 53 2 3 1 57 2 64 3 55 2 2 1 4 183 3 3 2 165 3 183 4 196 2 2 2 2 85 4 94 3 1 2 96 
